NAME : u159
TYPE : OP
DIMENSION : 159
COST_LIMIT : 21040
ROUTE_NODES : 85
ROUTE_SCORE : 4941
ROUTE_COST : 21023
NODE_SEQUENCE_SECTION
1
159
126
127
128
130
123
122
121
120
119
91
90
89
94
88
87
96
95
105
104
103
102
101
100
99
98
97
86
85
84
83
82
81
80
79
78
72
71
70
69
68
67
66
65
64
74
50
49
47
46
45
44
43
40
39
134
133
135
38
36
37
138
140
142
145
144
143
13
11
10
9
8
147
149
150
155
154
152
6
5
157
156
4
3
-1
DEPOT_SECTION
1
-1
EOF
